
Gurobi 11.0.3 (linux64) logging started Sat Nov 23 19:02:45 2024

Set parameter LogFile to value "/home/yihong/Coding/OR_SUC/SUC_results_bigM100000_thread4/case24_ieee_rts_theta0.1_epsilon0.025_gurobi_seed50000_num_gen100_N_WDR50_load_scaling_factor1_exact_T24quadra_cost.txt"
Set parameter TimeLimit to value 3600
Gurobi Optimizer version 11.0.3 build v11.0.3rc0 (linux64 - "Ubuntu 20.04.6 LTS")

CPU model: AMD EPYC 7532 32-Core Processor, instruction set [SSE2|AVX|AVX2]
Thread count: 64 physical cores, 128 logical processors, using up to 4 threads

Optimize a model with 50071 rows, 29861 columns and 508398 nonzeros
Model fingerprint: 0x7b6f7c63
Model has 2400 quadratic constraints
Variable types: 27411 continuous, 2450 integer (2450 binary)
Coefficient statistics:
  Matrix range     [5e-05, 1e+05]
  QMatrix range    [2e-03, 8e-03]
  QLMatrix range   [2e-01, 6e+01]
  Objective range  [1e+00, 1e+00]
  Bounds range     [1e+00, 1e+00]
  RHS range        [1e+00, 1e+05]
Presolve removed 40349 rows and 12951 columns
Presolve time: 0.18s
Presolved: 9722 rows, 16910 columns, 52125 nonzeros
Presolved model has 2400 quadratic constraint(s)
Variable types: 14478 continuous, 2432 integer (2432 binary)

Root relaxation: objective 3.408316e+04, 7163 iterations, 0.15 seconds (0.20 work units)

    Nodes    |    Current Node    |     Objective Bounds      |     Work
 Expl Unexpl |  Obj  Depth IntInf | Incumbent    BestBd   Gap | It/Node Time

     0     0 34083.1554    0    2          - 34083.1554      -     -    0s
     0     0 320173.713    0  756          - 320173.713      -     -    0s
     0     0 343652.709    0  740          - 343652.709      -     -    0s
     0     0 625120.413    0  668          - 625120.413      -     -    1s
     0     0 625169.874    0  465          - 625169.874      -     -    1s
     0     0 625521.815    0  352          - 625521.815      -     -    1s
     0     0 625523.998    0  352          - 625523.998      -     -    1s
     0     0 625568.646    0  351          - 625568.646      -     -    1s
     0     0 625568.782    0  351          - 625568.782      -     -    1s
     0     2 625568.782    0  351          - 625568.782      -     -    1s
H  460   266                    625838.05325 625603.748  0.04%  41.8    3s
*  460   266             167    625838.05325 625603.748  0.04%  41.8    3s

Cutting planes:
  Gomory: 8
  Implied bound: 329
  MIR: 99
  Flow cover: 179
  Relax-and-lift: 5
  PSD: 1

Explored 487 nodes (40937 simplex iterations) in 4.66 seconds (5.78 work units)
Thread count was 4 (of 128 available processors)

Solution count 2: 625838 625838 

Optimal solution found (tolerance 1.00e-03)
Warning: max constraint violation (5.9026e-08) exceeds tolerance
Best objective 6.258380527131e+05, best bound 6.256037476627e+05, gap 0.0374%
